# Solution for model Objective
# Objective value = 0
x#0#1#9 1
x#0#1#8 0
x#0#1#7 0
x#0#1#6 0
x#0#1#5 0
x#0#1#4 0
x#0#1#3 0
x#0#1#2 0
x#0#1#1 0
x#0#1#0 0
x#0#2#9 0
x#0#2#8 0
x#0#2#7 0
x#0#2#6 0
x#0#2#5 0
x#0#2#4 1
x#0#2#3 0
x#0#2#2 0
x#0#2#1 0
x#0#2#0 0
x#0#3#9 0
x#0#3#8 0
x#0#3#7 0
x#0#3#6 1
x#0#3#5 0
x#0#3#4 0
x#0#3#3 0
x#0#3#2 0
x#0#3#1 0
x#0#3#0 0
x#0#4#9 0
x#0#4#8 0
x#0#4#7 0
x#0#4#6 0
x#0#4#5 0
x#0#4#4 0
x#0#4#3 0
x#0#4#2 1
x#0#4#1 0
x#0#4#0 0
x#0#5#9 0
x#0#5#8 0
x#0#5#7 0
x#0#5#6 0
x#0#5#5 0
x#0#5#4 0
x#0#5#3 0
x#0#5#2 0
x#0#5#1 1
x#0#5#0 0
x#1#2#9 0
x#1#2#8 0
x#1#2#7 0
x#1#2#6 0
x#1#2#5 0
x#1#2#4 0
x#1#2#3 0
x#1#2#2 1
x#1#2#1 0
x#1#2#0 0
x#1#3#9 0
x#1#3#8 0
x#1#3#7 0
x#1#3#6 0
x#1#3#5 1
x#1#3#4 0
x#1#3#3 0
x#1#3#2 0
x#1#3#1 0
x#1#3#0 0
x#1#4#9 0
x#1#4#8 0
x#1#4#7 0
x#1#4#6 1
x#1#4#5 0
x#1#4#4 0
x#1#4#3 0
x#1#4#2 0
x#1#4#1 0
x#1#4#0 0
x#1#5#9 0
x#1#5#8 1
x#1#5#7 0
x#1#5#6 0
x#1#5#5 0
x#1#5#4 0
x#1#5#3 0
x#1#5#2 0
x#1#5#1 0
x#1#5#0 0
x#1#0#9 0
x#1#0#8 0
x#1#0#7 0
x#1#0#6 0
x#1#0#5 0
x#1#0#4 0
x#1#0#3 1
x#1#0#2 0
x#1#0#1 0
x#1#0#0 0
x#2#1#9 0
x#2#1#8 0
x#2#1#7 1
x#2#1#6 0
x#2#1#5 0
x#2#1#4 0
x#2#1#3 0
x#2#1#2 0
x#2#1#1 0
x#2#1#0 0
x#2#3#9 0
x#2#3#8 1
x#2#3#7 0
x#2#3#6 0
x#2#3#5 0
x#2#3#4 0
x#2#3#3 0
x#2#3#2 0
x#2#3#1 0
x#2#3#0 0
x#2#4#9 0
x#2#4#8 0
x#2#4#7 0
x#2#4#6 0
x#2#4#5 0
x#2#4#4 0
x#2#4#3 0
x#2#4#2 0
x#2#4#1 0
x#2#4#0 1
x#2#5#9 0
x#2#5#8 0
x#2#5#7 0
x#2#5#6 0
x#2#5#5 0
x#2#5#4 0
x#2#5#3 1
x#2#5#2 0
x#2#5#1 0
x#2#5#0 0
x#2#0#9 0
x#2#0#8 0
x#2#0#7 0
x#2#0#6 0
x#2#0#5 1
x#2#0#4 0
x#2#0#3 0
x#2#0#2 0
x#2#0#1 0
x#2#0#0 0
x#3#1#9 0
x#3#1#8 0
x#3#1#7 0
x#3#1#6 0
x#3#1#5 0
x#3#1#4 1
x#3#1#3 0
x#3#1#2 0
x#3#1#1 0
x#3#1#0 0
x#3#2#9 0
x#3#2#8 0
x#3#2#7 0
x#3#2#6 0
x#3#2#5 0
x#3#2#4 0
x#3#2#3 0
x#3#2#2 0
x#3#2#1 1
x#3#2#0 0
x#3#4#9 0
x#3#4#8 0
x#3#4#7 1
x#3#4#6 0
x#3#4#5 0
x#3#4#4 0
x#3#4#3 0
x#3#4#2 0
x#3#4#1 0
x#3#4#0 0
x#3#5#9 1
x#3#5#8 0
x#3#5#7 0
x#3#5#6 0
x#3#5#5 0
x#3#5#4 0
x#3#5#3 0
x#3#5#2 0
x#3#5#1 0
x#3#5#0 0
x#3#0#9 0
x#3#0#8 0
x#3#0#7 0
x#3#0#6 0
x#3#0#5 0
x#3#0#4 0
x#3#0#3 0
x#3#0#2 0
x#3#0#1 0
x#3#0#0 1
x#4#1#9 0
x#4#1#8 0
x#4#1#7 0
x#4#1#6 0
x#4#1#5 0
x#4#1#4 0
x#4#1#3 0
x#4#1#2 0
x#4#1#1 1
x#4#1#0 0
x#4#2#9 1
x#4#2#8 0
x#4#2#7 0
x#4#2#6 0
x#4#2#5 0
x#4#2#4 0
x#4#2#3 0
x#4#2#2 0
x#4#2#1 0
x#4#2#0 0
x#4#3#9 0
x#4#3#8 0
x#4#3#7 0
x#4#3#6 0
x#4#3#5 0
x#4#3#4 0
x#4#3#3 1
x#4#3#2 0
x#4#3#1 0
x#4#3#0 0
x#4#5#9 0
x#4#5#8 0
x#4#5#7 0
x#4#5#6 0
x#4#5#5 1
x#4#5#4 0
x#4#5#3 0
x#4#5#2 0
x#4#5#1 0
x#4#5#0 0
x#4#0#9 0
x#4#0#8 1
x#4#0#7 0
x#4#0#6 0
x#4#0#5 0
x#4#0#4 0
x#4#0#3 0
x#4#0#2 0
x#4#0#1 0
x#4#0#0 0
x#5#1#9 0
x#5#1#8 0
x#5#1#7 0
x#5#1#6 0
x#5#1#5 0
x#5#1#4 0
x#5#1#3 0
x#5#1#2 0
x#5#1#1 0
x#5#1#0 1
x#5#2#9 0
x#5#2#8 0
x#5#2#7 0
x#5#2#6 1
x#5#2#5 0
x#5#2#4 0
x#5#2#3 0
x#5#2#2 0
x#5#2#1 0
x#5#2#0 0
x#5#3#9 0
x#5#3#8 0
x#5#3#7 0
x#5#3#6 0
x#5#3#5 0
x#5#3#4 0
x#5#3#3 0
x#5#3#2 1
x#5#3#1 0
x#5#3#0 0
x#5#4#9 0
x#5#4#8 0
x#5#4#7 0
x#5#4#6 0
x#5#4#5 0
x#5#4#4 1
x#5#4#3 0
x#5#4#2 0
x#5#4#1 0
x#5#4#0 0
x#5#0#9 0
x#5#0#8 0
x#5#0#7 1
x#5#0#6 0
x#5#0#5 0
x#5#0#4 0
x#5#0#3 0
x#5#0#2 0
x#5#0#1 0
x#5#0#0 0
bh#0#1 0
ba#0#1 0
bh#0#2 1
ba#0#2 0
bh#0#3 0
ba#0#3 0
bh#0#4 0
ba#0#4 0
bh#0#5 0
ba#0#5 0
bh#0#6 0
ba#0#6 0
bh#0#7 0
ba#0#7 0
bh#0#8 0
ba#0#8 1
bh#0#9 0
ba#0#9 0
bh#1#1 0
ba#1#1 1
bh#1#2 0
ba#1#2 0
bh#1#3 1
ba#1#3 0
bh#1#4 0
ba#1#4 0
bh#1#5 0
ba#1#5 0
bh#1#6 1
ba#1#6 0
bh#1#7 0
ba#1#7 0
bh#1#8 0
ba#1#8 0
bh#1#9 0
ba#1#9 0
bh#2#1 0
ba#2#1 0
bh#2#2 0
ba#2#2 1
bh#2#3 0
ba#2#3 0
bh#2#4 0
ba#2#4 0
bh#2#5 0
ba#2#5 0
bh#2#6 0
ba#2#6 0
bh#2#7 0
ba#2#7 0
bh#2#8 1
ba#2#8 0
bh#2#9 0
ba#2#9 0
bh#3#1 1
ba#3#1 0
bh#3#2 0
ba#3#2 0
bh#3#3 0
ba#3#3 1
bh#3#4 0
ba#3#4 0
bh#3#5 0
ba#3#5 0
bh#3#6 0
ba#3#6 1
bh#3#7 0
ba#3#7 0
bh#3#8 0
ba#3#8 0
bh#3#9 0
ba#3#9 0
bh#4#1 0
ba#4#1 0
bh#4#2 0
ba#4#2 0
bh#4#3 0
ba#4#3 0
bh#4#4 0
ba#4#4 0
bh#4#5 0
ba#4#5 0
bh#4#6 0
ba#4#6 0
bh#4#7 0
ba#4#7 1
bh#4#8 0
ba#4#8 0
bh#4#9 1
ba#4#9 0
bh#5#1 0
ba#5#1 0
bh#5#2 0
ba#5#2 0
bh#5#3 0
ba#5#3 0
bh#5#4 0
ba#5#4 0
bh#5#5 0
ba#5#5 0
bh#5#6 0
ba#5#6 0
bh#5#7 1
ba#5#7 0
bh#5#8 0
ba#5#8 0
bh#5#9 0
ba#5#9 1
